 cell
        5.503129000000
     1.00000000000000     0.00000000000000     0.00000000000000 
     0.00000000000000     1.00000000000000     0.00000000000000 
     0.00000000000000     0.00000000000000     3.15430675893660 
  Si Cr Mn Fe Ni
  28 4 4 4 4
 Direct coordinates
   0.67871200000000   0.15882700000000   0.31744500000000  site  1 species 1: Si
   0.22952100000000   0.34641900000000   0.96092000000000  site  2 species 1: Si
   0.67871200000000   0.84117300000000   0.81744500000000  site  3 species 1: Si
   0.22952100000000   0.65358100000000   0.46092000000000  site  4 species 1: Si
   0.19909400000000   0.84438500000000   0.61288700000000  site  5 species 1: Si
   0.15561500000000   0.19909400000000   0.38711300000000  site  6 species 1: Si
   0.32128800000000   0.15882700000000   0.81744500000000  site  7 species 1: Si
   0.66614500000000   0.66614500000000   0.25000000000000  site  8 species 1: Si
   0.33385500000000   0.66614500000000   0.75000000000000  site  9 species 1: Si
   0.34641900000000   0.77047900000000   0.03908000000000  site 10 species 1: Si
   0.32128800000000   0.84117300000000   0.31744500000000  site 11 species 1: Si
   0.15882700000000   0.67871200000000   0.18255500000000  site 12 species 1: Si
   0.65358100000000   0.22952100000000   0.03908000000000  site 13 species 1: Si
   0.15561500000000   0.80090600000000   0.88711300000000  site 14 species 1: Si
   0.66614500000000   0.33385500000000   0.75000000000000  site 15 species 1: Si
   0.77047900000000   0.65358100000000   0.96092000000000  site 16 species 1: Si
   0.15882700000000   0.32128800000000   0.68255500000000  site 17 species 1: Si
   0.33385500000000   0.33385500000000   0.25000000000000  site 18 species 1: Si
   0.80090600000000   0.84438500000000   0.11288700000000  site 19 species 1: Si
   0.77047900000000   0.34641900000000   0.46092000000000  site 20 species 1: Si
   0.80090600000000   0.15561500000000   0.61288700000000  site 21 species 1: Si
   0.34641900000000   0.22952100000000   0.53908000000000  site 22 species 1: Si
   0.84117300000000   0.67871200000000   0.68255500000000  site 23 species 1: Si
   0.19909400000000   0.15561500000000   0.11288700000000  site 24 species 1: Si
   0.84438500000000   0.19909400000000   0.88711300000000  site 25 species 1: Si
   0.84438500000000   0.80090600000000   0.38711300000000  site 26 species 1: Si
   0.84117300000000   0.32128800000000   0.18255500000000  site 27 species 1: Si
   0.65358100000000   0.77047900000000   0.53908000000000  site 28 species 1: Si
   0.00000000000000   0.00000000000000   0.25000000000000  site 29 species 2: Cr
   0.00000000000000   0.50000000000000   0.30830700000000  site 30 species 2: Cr
   0.50000000000000   0.00000000000000   0.43498800000000  site 31 species 2: Cr
   0.50000000000000   0.00000000000000   0.93498800000000  site 32 species 2: Cr
   0.00000000000000   0.00000000000000   0.50000000000000  site 33 species 3: Mn
   0.50000000000000   0.00000000000000   0.19169300000000  site 34 species 3: Mn
   0.00000000000000   0.50000000000000   0.80830700000000  site 35 species 3: Mn
   0.00000000000000   0.50000000000000   0.56501200000000  site 36 species 3: Mn
   0.50000000000000   0.50000000000000   0.63009800000000  site 37 species 4: Fe
   0.50000000000000   0.00000000000000   0.69169300000000  site 38 species 4: Fe
   0.50000000000000   0.50000000000000   0.36990200000000  site 39 species 4: Fe
   0.50000000000000   0.50000000000000   0.13009800000000  site 40 species 4: Fe
   0.00000000000000   0.00000000000000   0.00000000000000  site 41 species 5: Ni
   0.00000000000000   0.50000000000000   0.06501200000000  site 42 species 5: Ni
   0.00000000000000   0.00000000000000   0.75000000000000  site 43 species 5: Ni
   0.50000000000000   0.50000000000000   0.86990200000000  site 44 species 5: Ni
