 cell
        8.667088452877
     0.70127356297860     0.40488048036126     0.58675990531880 
     0.00000000000000     0.80976096072253    -0.58675990531880 
    -0.70127356297860     0.40488048036126     0.58675990531880 
  Si Cr Fe Co Ni
  18 9 9 9 9
 Direct coordinates
   0.35111111111111   0.98222222222222   0.35111111111111  site  1 species 1: Si
   0.68444444444444   0.31555555555556   0.35111111111111  site  2 species 1: Si
   0.35111111111111   0.64888888888889   0.01777777777778  site  3 species 1: Si
   0.01777777777778   0.98222222222222   0.68444444444444  site  4 species 1: Si
   0.64888888888889   0.35111111111111   0.98222222222222  site  5 species 1: Si
   0.35111111111111   0.31555555555556   0.68444444444444  site  6 species 1: Si
   0.01777777777778   0.64888888888889   0.35111111111111  site  7 species 1: Si
   0.98222222222222   0.35111111111111   0.64888888888889  site  8 species 1: Si
   0.01777777777778   0.31555555555556   0.01777777777778  site  9 species 1: Si
   0.98222222222222   0.68444444444444   0.98222222222222  site 10 species 1: Si
   0.31555555555556   0.68444444444444   0.64888888888889  site 11 species 1: Si
   0.64888888888889   0.01777777777778   0.64888888888889  site 12 species 1: Si
   0.31555555555556   0.35111111111111   0.31555555555556  site 13 species 1: Si
   0.31555555555556   0.01777777777778   0.98222222222222  site 14 species 1: Si
   0.68444444444444   0.98222222222222   0.01777777777778  site 15 species 1: Si
   0.98222222222222   0.01777777777778   0.31555555555556  site 16 species 1: Si
   0.64888888888889   0.68444444444444   0.31555555555556  site 17 species 1: Si
   0.68444444444444   0.64888888888889   0.68444444444444  site 18 species 1: Si
   0.81555555555556   0.51777777777778   0.48222222222222  site 19 species 2: Cr
   0.81555555555556   0.18444444444444   0.14888888888889  site 20 species 2: Cr
   0.83333333333333   0.16666666666667   0.83333333333333  site 21 species 2: Cr
   0.50000000000000   0.50000000000000   0.50000000000000  site 22 species 2: Cr
   0.50000000000000   0.83333333333333   0.83333333333333  site 23 species 2: Cr
   0.16666666666667   0.50000000000000   0.83333333333333  site 24 species 2: Cr
   0.83333333333333   0.50000000000000   0.16666666666667  site 25 species 2: Cr
   0.14888888888889   0.51777777777778   0.14888888888889  site 26 species 2: Cr
   0.83333333333333   0.83333333333333   0.50000000000000  site 27 species 2: Cr
   0.14888888888889   0.85111111111111   0.48222222222222  site 28 species 3: Fe
   0.48222222222222   0.18444444444444   0.48222222222222  site 29 species 3: Fe
   0.14888888888889   0.18444444444444   0.81555555555556  site 30 species 3: Fe
   0.51777777777778   0.48222222222222   0.18444444444444  site 31 species 3: Fe
   0.85111111111111   0.14888888888889   0.51777777777778  site 32 species 3: Fe
   0.00000000000000   0.00000000000000   0.00000000000000  site 33 species 3: Fe
   0.00000000000000   0.66666666666667   0.66666666666667  site 34 species 3: Fe
   0.33333333333333   0.33333333333333   0.00000000000000  site 35 species 3: Fe
   0.50000000000000   0.16666666666667   0.16666666666667  site 36 species 3: Fe
   0.33333333333333   0.66666666666667   0.33333333333333  site 37 species 4: Co
   0.85111111111111   0.81555555555556   0.18444444444444  site 38 species 4: Co
   0.66666666666667   0.33333333333333   0.66666666666667  site 39 species 4: Co
   0.51777777777778   0.81555555555556   0.51777777777778  site 40 species 4: Co
   0.18444444444444   0.81555555555556   0.85111111111111  site 41 species 4: Co
   0.51777777777778   0.14888888888889   0.85111111111111  site 42 species 4: Co
   0.18444444444444   0.14888888888889   0.18444444444444  site 43 species 4: Co
   0.16666666666667   0.16666666666667   0.50000000000000  site 44 species 4: Co
   0.48222222222222   0.85111111111111   0.14888888888889  site 45 species 4: Co
   0.66666666666667   0.66666666666667   0.00000000000000  site 46 species 5: Ni
   0.16666666666667   0.83333333333333   0.16666666666667  site 47 species 5: Ni
   0.66666666666667   0.00000000000000   0.33333333333333  site 48 species 5: Ni
   0.33333333333333   0.00000000000000   0.66666666666667  site 49 species 5: Ni
   0.00000000000000   0.33333333333333   0.33333333333333  site 50 species 5: Ni
   0.85111111111111   0.48222222222222   0.85111111111111  site 51 species 5: Ni
   0.18444444444444   0.48222222222222   0.51777777777778  site 52 species 5: Ni
   0.81555555555556   0.85111111111111   0.81555555555556  site 53 species 5: Ni
   0.48222222222222   0.51777777777778   0.81555555555556  site 54 species 5: Ni
